g3 0 1 0	# problem ex8_4_1
 22 10 1 0 10	# vars, constraints, objectives, ranges, eqns
 10 1	# nonlinear constraints, objectives
 0 0	# network constraints: nonlinear, linear
 11 21 10	# nonlinear vars in constraints, objectives, both
 0 0 0 1	# linear network variables; functions; arith, flags
 0 0 0 0 0	# discrete variables: binary, integer, nonlinear (b,c,o)
 40 20	# nonzeros in Jacobian, gradients
 0 0	# max name lengths: constraints, variables
 0 0 0 0 0	# common exprs: b,c,o,c1,o1
b
0 -0.5 0.5
0 0.4 1.4
0 1.3 2.3
0 2.1 3.1
0 2.8 3.8
0 3.9 4.9
0 4.7 5.7
0 5.6 6.6
0 6 7
0 6.9 7.9
0 -2 2
0 5.4 6.4
0 4.9 5.9
0 3.9 4.9
0 4.1 5.1
0 3 4
0 3.2 4.2
0 2.3 3.3
0 2.3 3.3
0 1.9 2.9
0 1 2
0 0 10
x22
0 -0.328252868
1 0.950375356
2 1.592212117
3 2.449830504
4 2.867113723
5 4.898117627
6 5.691133039
7 5.730692483
8 6.159517864
9 7.568928609
10 -0.594234528
11 6.243266708
12 5.201137904
13 4.124052867
14 4.956270347
15 3.500210669
16 3.778733378
17 3.062250467
18 2.939718759
19 2.150080533
20 1.435356381
21 3.59700266
r
4 0
4 0
4 0
4 0
4 0
4 0
4 0
4 0
4 0
4 0
C0
o2
v10
v0
C1
o2
v10
v1
C2
o2
v10
v2
C3
o2
v10
v3
C4
o2
v10
v4
C5
o2
v10
v5
C6
o2
v10
v6
C7
o2
v10
v7
C8
o2
v10
v8
C9
o2
v10
v9
O0 0
o54
20
o5
v0
n2
o5
o0
n-5.9
v11
n2
o5
o0
n-0.9
v1
n2
o5
o0
n-5.4
v12
n2
o5
o0
n-1.8
v2
n2
o5
o0
n-4.4
v13
n2
o5
o0
n-2.6
v3
n2
o5
o0
n-4.6
v14
n2
o5
o0
n-3.3
v4
n2
o5
o0
n-3.5
v15
n2
o5
o0
n-4.4
v5
n2
o5
o0
n-3.7
v16
n2
o5
o0
n-5.2
v6
n2
o5
o0
n-2.8
v17
n2
o5
o0
n-6.1
v7
n2
o5
o0
n-2.8
v18
n2
o5
o0
n-6.5
v8
n2
o5
o0
n-2.4
v19
n2
o5
o0
n-7.4
v9
n2
o5
o0
n-1.5
v20
n2
k21
1
2
3
4
5
6
7
8
9
10
20
21
22
23
24
25
26
27
28
29
30
J0 4
0 0
10 0
11 -1
21 1
J1 4
1 0
10 0
12 -1
21 1
J2 4
2 0
10 0
13 -1
21 1
J3 4
3 0
10 0
14 -1
21 1
J4 4
4 0
10 0
15 -1
21 1
J5 4
5 0
10 0
16 -1
21 1
J6 4
6 0
10 0
17 -1
21 1
J7 4
7 0
10 0
18 -1
21 1
J8 4
8 0
10 0
19 -1
21 1
J9 4
9 0
10 0
20 -1
21 1
G0 20
0 0
1 0
2 0
3 0
4 0
5 0
6 0
7 0
8 0
9 0
11 0
12 0
13 0
14 0
15 0
16 0
17 0
18 0
19 0
20 0
